\* Paris_Visit_-_Max._number_of_sites_(price) *\
Maximize
Max._number_of_sites: AC + AT + BS + CA + CN + CP + JT + ML + MO + PC + SC
 + TE + TM
Subject To
Max._price: 9.5 AT + 8 BS + 10 CA + 5 CN + 10 CP + 12 ML + 11 MO + 8.5 SC
 + 15.5 TE + 15 TM <= 65
Binaries
AC
AT
BS
CA
CN
CP
JT
ML
MO
PC
SC
TE
TM
End
